c VarOld 8 : 8
c VarOld 1 : 2
c VarOld 2 : 3
c VarOld 9 : 5
c VarOld 3 : 6
c VarOld 4 : 9
c VarOld 10 : 10
c VarOld 5 : 1
c VarOld 6 : 4
c VarOld 7 : 7
c TseitinStart 11
p cnf 108 295
e 8 0
a 1 2 3 4 9 10 0
e 5 6 7 11 12 13 14 15 16 17 18 19 20 21 22 23 24 25 26 27 28 29 30 31 32 33 34 35 36 37 38 39 40 41 42 43 44 45 46 47 48 49 50 51 52 53 54 55 56 57 58 59 60 61 62 63 64 65 66 67 68 69 70 71 72 73 74 75 76 77 78 79 80 81 82 83 84 85 86 87 88 89 90 91 92 93 94 95 96 97 98 99 100 101 102 103 104 105 106 107 108 0
1 2 -11 0
-1 11 0
-2 11 0
-3 11 -12 0
-11 12 0
3 12 0
4 12 -13 0
-12 13 0
-4 13 0
-5 13 -14 0
-13 14 0
5 14 0
6 14 -15 0
-14 15 0
-6 15 0
7 15 -16 0
-15 16 0
-7 16 0
-1 8 -17 0
-8 17 0
1 17 0
-2 17 -18 0
-17 18 0
2 18 0
-3 18 -19 0
-18 19 0
3 19 0
-4 19 -20 0
-19 20 0
4 20 0
5 20 -21 0
-20 21 0
-5 21 0
-6 21 -22 0
-21 22 0
6 22 0
-1 8 -23 0
-8 23 0
1 23 0
4 23 -24 0
-23 24 0
-4 24 0
5 24 -25 0
-24 25 0
-5 25 0
7 25 -26 0
-25 26 0
-7 26 0
2 -5 -27 0
-2 27 0
5 27 0
6 27 -28 0
-27 28 0
-6 28 0
-7 28 -29 0
-28 29 0
7 29 0
-1 8 -30 0
-8 30 0
1 30 0
-2 30 -31 0
-30 31 0
2 31 0
-9 31 -32 0
-31 32 0
9 32 0
-3 32 -33 0
-32 33 0
3 33 0
-4 33 -34 0
-33 34 0
4 34 0
-10 34 -35 0
-34 35 0
10 35 0
-5 35 -36 0
-35 36 0
5 36 0
1 2 -37 0
-1 37 0
-2 37 0
3 37 -38 0
-37 38 0
-3 38 0
-5 38 -39 0
-38 39 0
5 39 0
2 8 -40 0
-8 40 0
-2 40 0
-9 40 -41 0
-40 41 0
9 41 0
-3 41 -42 0
-41 42 0
3 42 0
4 42 -43 0
-42 43 0
-4 43 0
-10 43 -44 0
-43 44 0
10 44 0
5 44 -45 0
-44 45 0
-5 45 0
6 45 -46 0
-45 46 0
-6 46 0
-5 8 -47 0
-8 47 0
5 47 0
-6 47 -48 0
-47 48 0
6 48 0
-1 -8 -49 0
8 49 0
1 49 0
2 49 -50 0
-49 50 0
-2 50 0
3 50 -51 0
-50 51 0
-3 51 0
6 51 -52 0
-51 52 0
-6 52 0
6 -7 -53 0
-6 53 0
7 53 0
8 -9 -54 0
-8 54 0
9 54 0
10 54 -55 0
-54 55 0
-10 55 0
5 55 -56 0
-55 56 0
-5 56 0
6 56 -57 0
-56 57 0
-6 57 0
-5 -8 -58 0
8 58 0
5 58 0
6 58 -59 0
-58 59 0
-6 59 0
-7 59 -60 0
-59 60 0
7 60 0
5 -9 -61 0
9 61 0
-5 61 0
-3 -8 -62 0
8 62 0
3 62 0
10 62 -63 0
-62 63 0
-10 63 0
5 63 -64 0
-63 64 0
-5 64 0
-6 64 -65 0
-64 65 0
6 65 0
-7 65 -66 0
-65 66 0
7 66 0
5 6 -67 0
-5 67 0
-6 67 0
-1 -2 -68 0
1 68 0
2 68 0
-9 68 -69 0
-68 69 0
9 69 0
-3 69 -70 0
-69 70 0
3 70 0
4 70 -71 0
-70 71 0
-4 71 0
10 71 -72 0
-71 72 0
-10 72 0
7 72 -73 0
-72 73 0
-7 73 0
3 6 -74 0
-3 74 0
-6 74 0
-3 -8 -75 0
8 75 0
3 75 0
4 75 -76 0
-75 76 0
-4 76 0
-10 76 -77 0
-76 77 0
10 77 0
5 77 -78 0
-77 78 0
-5 78 0
7 78 -79 0
-78 79 0
-7 79 0
3 -9 -80 0
9 80 0
-3 80 0
-4 80 -81 0
-80 81 0
4 81 0
-10 81 -82 0
-81 82 0
10 82 0
-6 82 -83 0
-82 83 0
6 83 0
-1 -2 -84 0
1 84 0
2 84 0
-9 84 -85 0
-84 85 0
9 85 0
3 85 -86 0
-85 86 0
-3 86 0
4 86 -87 0
-86 87 0
-4 87 0
-10 87 -88 0
-87 88 0
10 88 0
-5 88 -89 0
-88 89 0
5 89 0
-16 -22 90 0
16 -90 0
22 -90 0
-26 -90 91 0
90 -91 0
26 -91 0
-29 -91 92 0
91 -92 0
29 -92 0
-36 -92 93 0
92 -93 0
36 -93 0
-39 -93 94 0
93 -94 0
39 -94 0
-46 -94 95 0
94 -95 0
46 -95 0
-48 -95 96 0
95 -96 0
48 -96 0
-52 -96 97 0
96 -97 0
52 -97 0
-53 -97 98 0
97 -98 0
53 -98 0
-57 -98 99 0
98 -99 0
57 -99 0
-60 -99 100 0
99 -100 0
60 -100 0
-61 -100 101 0
100 -101 0
61 -101 0
-66 -101 102 0
101 -102 0
66 -102 0
-67 -102 103 0
102 -103 0
67 -103 0
-73 -103 104 0
103 -104 0
73 -104 0
-74 -104 105 0
104 -105 0
74 -105 0
-79 -105 106 0
105 -106 0
79 -106 0
-83 -106 107 0
106 -107 0
83 -107 0
-89 -107 108 0
107 -108 0
89 -108 0
108 0
